*SENSE:Maximize
NAME          MODEL
ROWS
 N  OBJ
 E  C0000000
 E  C0000001
 E  C0000002
 L  C0000003
 L  C0000004
 L  C0000005
 E  C0000006
 E  C0000007
 E  C0000008
 L  C0000009
 G  C0000010
 L  C0000011
 G  C0000012
 L  C0000013
 G  C0000014
 L  C0000015
 G  C0000016
 L  C0000017
 G  C0000018
 L  C0000019
 G  C0000020
 L  C0000021
 G  C0000022
 L  C0000023
 G  C0000024
 L  C0000025
 G  C0000026
 L  C0000027
COLUMNS
    MARK      'MARKER'                 'INTORG'
    X0000000  C0000008   1.00000e+00
    X0000000  C0000009  -1.00000e+00
    X0000000  C0000010  -1.00000e+00
    X0000000  C0000015  -1.00000e+00
    X0000000  C0000016  -1.00000e+00
    X0000000  C0000021  -1.00000e+00
    X0000000  C0000022  -1.00000e+00
    MARK      'MARKER'                 'INTEND'
    MARK      'MARKER'                 'INTORG'
    X0000001  C0000009   1.00000e+00
    X0000001  C0000010   1.00000e+00
    X0000001  C0000011   1.00000e+00
    X0000001  C0000012   1.00000e+00
    X0000001  C0000013   1.00000e+00
    X0000001  C0000014   1.00000e+00
    X0000001  C0000017  -1.00000e+00
    X0000001  C0000018  -1.00000e+00
    X0000001  C0000023  -1.00000e+00
    X0000001  C0000024  -1.00000e+00
    MARK      'MARKER'                 'INTEND'
    MARK      'MARKER'                 'INTORG'
    X0000002  C0000011  -1.00000e+00
    X0000002  C0000012  -1.00000e+00
    X0000002  C0000015   1.00000e+00
    X0000002  C0000016   1.00000e+00
    X0000002  C0000017   1.00000e+00
    X0000002  C0000018   1.00000e+00
    X0000002  C0000019   1.00000e+00
    X0000002  C0000020   1.00000e+00
    X0000002  C0000025  -1.00000e+00
    X0000002  C0000026  -1.00000e+00
    MARK      'MARKER'                 'INTEND'
    MARK      'MARKER'                 'INTORG'
    X0000003  C0000013  -1.00000e+00
    X0000003  C0000014  -1.00000e+00
    X0000003  C0000019  -1.00000e+00
    X0000003  C0000020  -1.00000e+00
    X0000003  C0000021   1.00000e+00
    X0000003  C0000022   1.00000e+00
    X0000003  C0000023   1.00000e+00
    X0000003  C0000024   1.00000e+00
    X0000003  C0000025   1.00000e+00
    X0000003  C0000026   1.00000e+00
    MARK      'MARKER'                 'INTEND'
    MARK      'MARKER'                 'INTORG'
    X0000004  C0000002   1.00000e+00
    X0000004  C0000005   1.00000e+00
    X0000004  C0000006   1.00000e+00
    X0000004  C0000009   4.00000e+00
    X0000004  C0000010  -4.00000e+00
    X0000004  C0000027   9.00000e+01
    MARK      'MARKER'                 'INTEND'
    MARK      'MARKER'                 'INTORG'
    X0000005  C0000000   1.00000e+00
    X0000005  C0000003   1.00000e+00
    X0000005  C0000006   1.00000e+00
    X0000005  C0000015   4.00000e+00
    X0000005  C0000016  -4.00000e+00
    X0000005  C0000027   1.00000e+02
    X0000005  OBJ        4.70000e+00
    MARK      'MARKER'                 'INTEND'
    MARK      'MARKER'                 'INTORG'
    X0000006  C0000001   1.00000e+00
    X0000006  C0000004   1.00000e+00
    X0000006  C0000006   1.00000e+00
    X0000006  C0000021   4.00000e+00
    X0000006  C0000022  -4.00000e+00
    X0000006  C0000027   1.10000e+02
    X0000006  OBJ        4.60000e+00
    MARK      'MARKER'                 'INTEND'
    MARK      'MARKER'                 'INTORG'
    X0000007  C0000002  -1.00000e+00
    X0000007  C0000007   1.00000e+00
    X0000007  C0000027   3.00000e+01
    MARK      'MARKER'                 'INTEND'
    MARK      'MARKER'                 'INTORG'
    X0000008  C0000000   1.00000e+00
    X0000008  C0000002  -1.00000e+00
    X0000008  C0000003   1.00000e+00
    X0000008  C0000017   4.00000e+00
    X0000008  C0000018  -4.00000e+00
    X0000008  C0000027   1.00000e+02
    X0000008  OBJ        4.70000e+00
    MARK      'MARKER'                 'INTEND'
    MARK      'MARKER'                 'INTORG'
    X0000009  C0000001   1.00000e+00
    X0000009  C0000002  -1.00000e+00
    X0000009  C0000004   1.00000e+00
    X0000009  C0000023   4.00000e+00
    X0000009  C0000024  -4.00000e+00
    X0000009  C0000027   1.10000e+02
    X0000009  OBJ        4.60000e+00
    MARK      'MARKER'                 'INTEND'
    MARK      'MARKER'                 'INTORG'
    X0000010  C0000000  -1.00000e+00
    X0000010  C0000007   1.00000e+00
    X0000010  C0000027   4.00000e+01
    MARK      'MARKER'                 'INTEND'
    MARK      'MARKER'                 'INTORG'
    X0000011  C0000000  -1.00000e+00
    X0000011  C0000002   1.00000e+00
    X0000011  C0000005   1.00000e+00
    X0000011  C0000011   4.00000e+00
    X0000011  C0000012  -4.00000e+00
    X0000011  C0000027   1.00000e+02
    MARK      'MARKER'                 'INTEND'
    MARK      'MARKER'                 'INTORG'
    X0000012  C0000000  -1.00000e+00
    X0000012  C0000001   1.00000e+00
    X0000012  C0000004   1.00000e+00
    X0000012  C0000025   4.00000e+00
    X0000012  C0000026  -4.00000e+00
    X0000012  C0000027   1.10000e+02
    X0000012  OBJ        4.60000e+00
    MARK      'MARKER'                 'INTEND'
    MARK      'MARKER'                 'INTORG'
    X0000013  C0000001  -1.00000e+00
    X0000013  C0000007   1.00000e+00
    X0000013  C0000027   3.00000e+01
    MARK      'MARKER'                 'INTEND'
    MARK      'MARKER'                 'INTORG'
    X0000014  C0000001  -1.00000e+00
    X0000014  C0000002   1.00000e+00
    X0000014  C0000005   1.00000e+00
    X0000014  C0000013   4.00000e+00
    X0000014  C0000014  -4.00000e+00
    X0000014  C0000027   1.00000e+02
    MARK      'MARKER'                 'INTEND'
    MARK      'MARKER'                 'INTORG'
    X0000015  C0000000   1.00000e+00
    X0000015  C0000001  -1.00000e+00
    X0000015  C0000003   1.00000e+00
    X0000015  C0000019   4.00000e+00
    X0000015  C0000020  -4.00000e+00
    X0000015  C0000027   1.10000e+02
    X0000015  OBJ        4.70000e+00
    MARK      'MARKER'                 'INTEND'
RHS
    RHS       C0000000   0.00000e+00
    RHS       C0000001   0.00000e+00
    RHS       C0000002   0.00000e+00
    RHS       C0000003   1.00000e+00
    RHS       C0000004   1.00000e+00
    RHS       C0000005   1.00000e+00
    RHS       C0000006   1.00000e+00
    RHS       C0000007   1.00000e+00
    RHS       C0000008   0.00000e+00
    RHS       C0000009   5.00000e+00
    RHS       C0000010  -3.00000e+00
    RHS       C0000011   5.00000e+00
    RHS       C0000012  -3.00000e+00
    RHS       C0000013   5.00000e+00
    RHS       C0000014  -3.00000e+00
    RHS       C0000015   5.00000e+00
    RHS       C0000016  -3.00000e+00
    RHS       C0000017   5.00000e+00
    RHS       C0000018  -3.00000e+00
    RHS       C0000019   5.00000e+00
    RHS       C0000020  -3.00000e+00
    RHS       C0000021   5.00000e+00
    RHS       C0000022  -3.00000e+00
    RHS       C0000023   5.00000e+00
    RHS       C0000024  -3.00000e+00
    RHS       C0000025   5.00000e+00
    RHS       C0000026  -3.00000e+00
    RHS       C0000027   2.04000e+03
BOUNDS
 LO BND       X0000000   0.00000e+00
 LO BND       X0000001   0.00000e+00
 LO BND       X0000002   0.00000e+00
 LO BND       X0000003   0.00000e+00
 BV BND       X0000004
 BV BND       X0000005
 BV BND       X0000006
 BV BND       X0000007
 BV BND       X0000008
 BV BND       X0000009
 BV BND       X0000010
 BV BND       X0000011
 BV BND       X0000012
 BV BND       X0000013
 BV BND       X0000014
 BV BND       X0000015
ENDATA
